SCIP Status        : solving was interrupted [time limit reached]
Total Time         :    3600.00
  solving          :    3600.00
  presolving       :       0.36 (included in solving)
  reading          :       0.00
  copying          :       1.02 (35 #copies) (minimal 0.00, maximal 0.05, average 0.03)
Original Problem   :
  Problem name     : bbbenchmark/g05_80.3.cut
  Variables        : 81 (80 binary, 0 integer, 0 implicit integer, 1 continuous)
  Constraints      : 1 initial, 1 maximal
  Objective        : minimize, 1 non-zeros (abs.min = 1, abs.max = 1)
Presolved Problem  :
  Problem name     : t_bbbenchmark/g05_80.3.cut
  Variables        : 1612 (80 binary, 0 integer, 1530 implicit integer, 2 continuous)
  Constraints      : 1534 initial, 6828 maximal
  Objective        : minimize, 1 non-zeros (abs.min = 1, abs.max = 1)
  Nonzeros         : 6307 constraint, 162 clique table
Presolvers         :   ExecTime  SetupTime  Calls  FixedVars   AggrVars   ChgTypes  ChgBounds   AddHoles    DelCons    AddCons   ChgSides   ChgCoefs
  boundshift       :       0.00       0.00      0          0          0          0          0          0          0          0          0          0
  convertinttobin  :       0.00       0.00      0          0          0          0          0          0          0          0          0          0
  domcol           :       0.00       0.00      1          0          0          0          0          0          0          0          0          0
  dualagg          :       0.00       0.00      0          0          0          0          0          0          0          0          0          0
  dualcomp         :       0.00       0.00      1          0          0          0          0          0          0          0          0          0
  dualinfer        :       0.00       0.00      0          0          0          0          0          0          0          0          0          0
  dualsparsify     :       0.00       0.00      1          0          0          0          0          0          0          0          0          0
  gateextraction   :       0.00       0.00      0          0          0          0          0          0          0          0          0          0
  implics          :       0.00       0.00      2          0          0          0          0          0          0          0          0          0
  inttobinary      :       0.00       0.00      0          0          0          0          0          0          0          0          0          0
  qpkktref         :       0.00       0.00      0          0          0          0          0          0          0          0          0          0
  redvub           :       0.00       0.00      0          0          0          0          0          0          0          0          0          0
  sparsify         :       0.00       0.00      1          0          0          0          0          0          0          0          0          0
  stuffing         :       0.00       0.00      0          0          0          0          0          0          0          0          0          0
  trivial          :       0.00       0.00      4          0          0          0          0          0          0          0          0          0
  tworowbnd        :       0.00       0.00      0          0          0          0          0          0          0          0          0          0
  dualfix          :       0.00       0.00      4          0          0          0          0          0          0          0          0          0
  genvbounds       :       0.00       0.00      0          0          0          0          0          0          0          0          0          0
  probing          :       0.22       0.00      1          0          0          0          0          0          0          0          0          0
  pseudoobj        :       0.00       0.00      1          0          0          0          1          0          0          0          0          0
  symmetry         :       0.00       0.00      0          0          0          0          0          0          0          0          0          0
  vbounds          :       0.00       0.00      1          0          0          0          0          0          0          0          0          0
  varbound         :       0.00       0.00      2          0          0          0          0          0          0          0          0          0
  and              :       0.00       0.01      2          0          0          0          0          0          0          0          0          0
  linear           :       0.01       0.00      2          0          0          0          0          0          0          0          0          0
  logicor          :       0.00       0.00      0          0          0          0          0          0          0          0          0          0
  bounddisjunction :       0.00       0.00      0          0          0          0          0          0          0          0          0          0
  nonlinear        :       0.13       0.00      5          0          0          0          1          0          0       1533          0          0
  benders          :       0.00       0.00      0          0          0          0          0          0          0          0          0          0
  components       :       0.00       0.00      1          0          0          0          0          0          0          0          0          0
  root node        :          -          -      -          0          -          -         27          -          -          -          -          -
Constraints        :     Number  MaxNumber  #Separate #Propagate    #EnfoLP    #EnfoRelax  #EnfoPS    #Check   #ResProp    Cutoffs    DomReds       Cuts    Applied      Conss   Children
  benderslp        :          0          0          0          0      56319          0          0       1939          0          0          0          0          0          0          0
  integral         :          0          0          0          0      56319          0          0       1939          0          0       3559          0          0       1914     109614
  varbound         :          1          1         54      86796          0          0          0         47          0          0        726          0          0          0          0
  and              :       1530       1530      66539     415293         20          0          0         47     155798          0    1832261       4380       4238          0          0
  linear           :          3+         5         54     415295         20          0          0         45        158          1      35432          0          0          0          0
  logicor          :          0+      5207          0     105190          0          0          0          0        284        357         38          0          0          0          0
  bounddisjunction :          0+       258          0      32112          0          0          0          0          0         15          0          0          0          0          0
  benders          :          0          0          0          0         20          0          0         44          0          0          0          0          0          0          0
  countsols        :          0          0          0          0         20          0          0         44          0          0          0          0          0          0          0
  components       :          0          0          0          0          0          0          0          0          0          0          0          0          0          0          0
Constraint Timings :  TotalTime  SetupTime   Separate  Propagate     EnfoLP     EnfoPS     EnfoRelax   Check    ResProp    SB-Prop
  benderslp        :       0.03       0.00       0.00       0.00       0.03       0.00       0.00       0.00       0.00       0.00
  integral         :      53.53       0.00       0.00       0.00      53.52       0.00       0.00       0.01       0.00       0.00
  varbound         :       0.03       0.00       0.00       0.03       0.00       0.00       0.00       0.00       0.00       0.00
  and              :      56.07       0.01      34.43      20.99       0.00       0.00       0.00       0.03       0.14       0.47
  linear           :       0.61       0.00       0.01       0.59       0.00       0.00       0.00       0.01       0.00       0.00
  logicor          :       5.56       0.00       0.00       5.51       0.00       0.00       0.00       0.00       0.00       0.05
  bounddisjunction :       0.36       0.00       0.00       0.36       0.00       0.00       0.00       0.00       0.00       0.00
  benders          :       0.00       0.00       0.00       0.00       0.00       0.00       0.00       0.00       0.00       0.00
  countsols        :       0.00       0.00       0.00       0.00       0.00       0.00       0.00       0.00       0.00       0.00
  components       :       0.12       0.00       0.00       0.12       0.00       0.00       0.00       0.00       0.00       0.00
Propagators        : #Propagate   #ResProp    Cutoffs    DomReds
  dualfix          :          2          0          0          0
  genvbounds       :          0          0          0          0
  nlobbt           :          0          0          0          0
  obbt             :          0          0          0          0
  probing          :          0          0          0          0
  pseudoobj        :     260506          0          0         28
  redcost          :     136553          0          0      81339
  rootredcost      :         29          0          0          0
  symmetry         :          0          0          0          0
  vbounds          :      49455          0          0          0
Propagator Timings :  TotalTime  SetupTime   Presolve  Propagate    ResProp    SB-Prop
  dualfix          :       0.00       0.00       0.00       0.00       0.00       0.00
  genvbounds       :       0.32       0.00       0.00       0.32       0.00       0.00
  nlobbt           :       0.00       0.00       0.00       0.00       0.00       0.00
  obbt             :       0.00       0.00       0.00       0.00       0.00       0.00
  probing          :       0.22       0.00       0.22       0.00       0.00       0.00
  pseudoobj        :       0.41       0.00       0.00       0.41       0.00       0.00
  redcost          :       7.28       0.00       0.00       7.27       0.00       0.01
  rootredcost      :       0.46       0.00       0.00       0.46       0.00       0.00
  symmetry         :       0.15       0.00       0.00       0.14       0.00       0.01
  vbounds          :       0.31       0.00       0.00       0.31       0.00       0.00
Conflict Analysis  :       Time      Calls    Success    DomReds  Conflicts   Literals    Reconvs ReconvLits   Dualrays   Nonzeros   LP Iters   (pool size: [10000,10000])
  propagation      :       0.02        372        289          -        335       44.9          0        0.0          -          -          -
  infeasible LP    :       0.00          0          0          -          0        0.0          0        0.0          3       80.7          0
  bound exceed. LP :      12.31       6764       4878          -      57037       63.1          1       26.0          0        0.0      28247
  strong branching :       0.00          0          0          -          0        0.0          0        0.0          -          -          0
  pseudo solution  :       0.00          0          0          -          0        0.0          0        0.0          -          -          -
  applied globally :       0.16          -          -          0      16435       67.8          -          -          3          -          -
  applied locally  :          -          -          -          0          0        0.0          -          -          0          -          -
Separators         :   ExecTime  SetupTime      Calls  RootCalls    Cutoffs    DomReds  FoundCuts ViaPoolAdd  DirectAdd    Applied ViaPoolApp  DirectApp      Conss
  cut pool         :       4.42          -      21413         76          -          -      34761     866303          -          -          -          -          -    (maximal pool size:       1845)
  aggregation      :       8.74       0.00       4276         54          0          0        190        312          0         32         32          0          0
  > cmir           :          -          -          -          -          -          -          -        312          0         32         32          0          -
  > flowcover      :          -          -          -          -          -          -          -          0          0          0          0          0          -
  > knapsackcover  :          -          -          -          -          -          -          -          0          0          0          0          0          -
  cgmip            :       0.00       0.00          0          0          0          0          0          0          0          0          0          0          0
  clique           :       0.00       0.00         54         54          0          0          0          0          0          0          0          0          0
  closecuts        :       0.00       0.00          0          0          0          0          0          0          0          0          0          0          0
  convexproj       :       0.00       0.00          0          0          0          0          0          0          0          0          0          0          0
  disjunctive      :       0.00       0.00          0          0          0          0          0          0          0          0          0          0          0
  eccuts           :       0.00       0.00          0          0          0          0          0          0          0          0          0          0          0
  gauge            :       0.00       0.00          0          0          0          0          0          0          0          0          0          0          0
  gomory           :       0.00       0.00          0          0          0          0          0          0          0          0          0          0          0
  > gomorymi       :          -          -          -          -          -          -          -          0          0          0          0          0          -
  > strongcg       :          -          -          -          -          -          -          -          0          0          0          0          0          -
  impliedbounds    :       0.22       0.00       4276         54          0          0          0          0          0          0          0          0          0
  interlattice     :       0.13       0.00         30         30          0          0         30          0         30         30          0         30          0
  interminor       :       0.00       0.00          0          0          0          0          0          0          0          0          0          0          0
  intersub         :       0.00       0.00          0          0          0          0          0          0          0          0          0          0          0
  intobj           :       0.00       0.00          0          0          0          0          0          0          0          0          0          0          0
  mcf              :       0.00       0.00          1          1          0          0          0          0          0          0          0          0          0
  minor            :       0.00       0.00          0          0          0          0          0          0          0          0          0          0          0
  mixing           :       0.00       0.00       4281         54          0          0          0          0          0          0          0          0          0
  oddcycle         :       0.00       0.00          0          0          0          0          0          0          0          0          0          0          0
  rapidlearning    :       0.00       0.00          0          0          0          0          0          0          0          0          0          0          0
  rlt              :       0.00       0.00         10         10          0          0          0          0          0          0          0          0          0
  zerohalf         :      37.18       0.00       3852         20          0          0      34571     865991          0     113881     113881          0          0
Cutselectors       :   ExecTime  SetupTime      Calls  RootCalls   Selected     Forced   Filtered  RootSelec   RootForc   RootFilt 
  hybrid           :       0.73       0.00      13670         53     118181          0     752532        201          0          8
Pricers            :   ExecTime  SetupTime      Calls       Vars
  problem variables:       0.00          -          0          0
Branching Rules    :   ExecTime  SetupTime   BranchLP  BranchExt   BranchPS    Cutoffs    DomReds       Cuts      Conss   Children
  allfullstrong    :       0.00       0.00          0          0          0          0          0          0          0          0
  cloud            :       0.00       0.00          0          0          0          0          0          0          0          0
  distribution     :       0.00       0.00          0          0          0          0          0          0          0          0
  fullstrong       :       0.00       0.00          0          0          0          0          0          0          0          0
  inference        :       0.00       0.00          0          0          0          0          0          0          0          0
  leastinf         :       0.00       0.00          0          0          0          0          0          0          0          0
  lookahead        :       0.00       0.00          0          0          0          0          0          0          0          0
  mostinf          :       0.00       0.00          0          0          0          0          0          0          0          0
  multaggr         :       0.00       0.00          0          0          0          0          0          0          0          0
  nodereopt        :       0.00       0.00          0          0          0          0          0          0          0          0
  pscost           :       0.00       0.00          0          0          0          0          0          0          0          0
  random           :       0.00       0.00          0          0          0          0          0          0          0          0
  relpscost        :      53.35       0.00      56299          0          0          0       3559          0       1916     109614
  vanillafullstrong:       0.00       0.00          0          0          0          0          0          0          0          0
Primal Heuristics  :   ExecTime  SetupTime      Calls      Found       Best
  LP solutions     :       0.00          -          -         20         20
  relax solutions  :       0.00          -          -          0          0
  pseudo solutions :       0.00          -          -          0          0
  strong branching :       0.01          -          -          0          0
  actconsdiving    :       0.00       0.00          0          0          0
  adaptivediving   :       3.47       0.00         39          0          0
  alns             :       3.81       0.00         21          6          5
  bound            :       0.00       0.00          0          0          0
  clique           :       0.01       0.00          1          0          0
  coefdiving       :       0.00       0.00          0          0          0
  completesol      :       0.00       0.00          0          0          0
  conflictdiving   :      30.30       0.00        338          0          0
  crossover        :       0.70       0.00          8          1          1
  dins             :       0.00       0.00          0          0          0
  distributiondivin:      48.24       0.00        339          0          0
  dps              :       0.00       0.00          0          0          0
  dualval          :       0.00       0.00          0          0          0
  farkasdiving     :       0.00       0.00          0          0          0
  feaspump         :       0.00       0.00          0          0          0
  fixandinfer      :       0.00       0.00          0          0          0
  fracdiving       :      32.56       0.00        339          0          0
  gins             :       0.03       0.00          0          0          0
  guideddiving     :      28.19       0.00        338          2          2
  indicator        :       0.05       0.00          0          0          0
  indicatordiving  :       0.00       0.00          0          0          0
  intdiving        :       0.00       0.00          0          0          0
  intshifting      :       0.39       0.00         49          0          0
  linesearchdiving :      25.99       0.00        339          0          0
  localbranching   :       0.00       0.00          0          0          0
  locks            :       0.00       0.00          1          0          0
  lpface           :       0.04       0.00          0          0          0
  mpec             :     143.48       0.00         11          0          0
  multistart       :       0.00       0.00          0          0          0
  mutation         :       0.00       0.00          0          0          0
  nlpdiving        :       6.91       0.00         10          0          0
  objpscostdiving  :      61.47       0.00         80         17          0
  octane           :       0.00       0.00          0          0          0
  ofins            :       0.10       0.00          0          0          0
  oneopt           :       0.19       0.00         39          0          0
  padm             :       0.00       0.00          0          0          0
  proximity        :       0.00       0.00          0          0          0
  pscostdiving     :      35.75       0.00        339          0          0
  randrounding     :       0.32       0.00       1891          0          0
  rens             :       0.00       0.00          0          0          0
  reoptsols        :       0.00       0.00          0          0          0
  repair           :       0.00       0.00          0          0          0
  rins             :       6.38       0.00          5          0          0
  rootsoldiving    :      45.25       0.00         52          3          0
  rounding         :       0.82       0.00       3637          0          0
  shiftandpropagate:       0.00       0.00          0          0          0
  shifting         :      55.63       0.00      13672          9          9
  simplerounding   :       0.05       0.00          0          0          0
  subnlp           :     101.00       0.00          0          0          0
  trivial          :       0.01       0.00          2          2          2
  trivialnegation  :       0.00       0.00          0          0          0
  trustregion      :       0.00       0.00          0          0          0
  trysol           :       0.08       0.00          0          0          0
  twoopt           :       0.00       0.00          0          0          0
  undercover       :       0.82       0.00          1          1          1
  vbounds          :       0.00       0.00          0          0          0
  veclendiving     :      25.46       0.00        338          0          0
  zeroobj          :       0.00       0.00          0          0          0
  zirounding       :       0.40       0.00       1000          0          0
  other solutions  :          -          -          -          0          -
Diving (single)    :      Calls      Nodes   LP Iters Backtracks  Conflicts   MinDepth   MaxDepth   AvgDepth  RoundSols  NLeafSols  MinSolDpt  MaxSolDpt  AvgSolDpt
  actconsdiving    :          0          -          -          -          -          -          -          -          -          -          -          -          -
  coefdiving       :          0          -          -          -          -          -          -          -          -          -          -          -          -
  conflictdiving   :        338      11014     277143        379       9863         35         68       49.5          0          -          -          -          -
  distributiondivin:        339       7887     362696        379       4484         33         55       40.1          0          -          -          -          -
  farkasdiving     :          0          -          -          -          -          -          -          -          -          -          -          -          -
  fracdiving       :        339      39732     304538        283       2836         39        471      134.4          0          -          -          -          -
  guideddiving     :        338      34266     267088        173       2831         47        421      118.9          0          2         88         94       91.0
  indicatordiving  :          0          -          -          -          -          -          -          -          -          -          -          -          -
  linesearchdiving :        339      10449     270647        383       8648         33         74       47.7          0          -          -          -          -
  pscostdiving     :        339      10398     361688        355       8016         37         59       47.3          0          -          -          -          -
  veclendiving     :        338       9327     242655        346      10943         36         67       44.9          0          -          -          -          -
Diving (adaptive)  :      Calls      Nodes   LP Iters Backtracks  Conflicts   MinDepth   MaxDepth   AvgDepth  RoundSols  NLeafSols  MinSolDpt  MaxSolDpt  AvgSolDpt
  actconsdiving    :          8        207       7830          6         71         39         46       42.4          0          -          -          -          -
  coefdiving       :         17        516      13353         18        611         37         58       45.4          0          -          -          -          -
  conflictdiving   :          0          -          -          -          -          -          -          -          -          -          -          -          -
  distributiondivin:          0          -          -          -          -          -          -          -          -          -          -          -          -
  farkasdiving     :          0          -          -          -          -          -          -          -          -          -          -          -          -
  fracdiving       :          2        504       2845          1          2        131        404      267.5          0          -          -          -          -
  guideddiving     :          3        382       1961          1         18         96        229      146.0          0          -          -          -          -
  indicatordiving  :          0          -          -          -          -          -          -          -          -          -          -          -          -
  linesearchdiving :          3         92       2664          3        115         40         56       46.3          0          -          -          -          -
  pscostdiving     :          0          -          -          -          -          -          -          -          -          -          -          -          -
  veclendiving     :          6        167       3847          6        228         39         58       46.0          0          -          -          -          -
Neighborhoods      :      Calls  SetupTime  SolveTime SolveNodes       Sols       Best       Exp3  EpsGreedy        UCB TgtFixRate  Opt  Inf Node Stal  Sol  Usr Othr Actv
  rens             :          2       0.12       0.01          0          0          0    0.00000   -1.00000    0.54973      0.550    0    2    0    0    0    0    0    1
  rins             :          1       0.01       0.00          0          0          0    0.00000   -1.00000    0.57033      0.700    0    1    0    0    0    0    0    1
  mutation         :          2       0.09       0.04          3          0          0    0.00000   -1.00000    0.54646      0.550    0    2    0    0    0    0    0    1
  localbranching   :          3       0.12       0.52        207          1          1    0.00000   -1.00000    0.50028      0.662    1    1    0    1    0    0    0    1
  crossover        :          2       0.13       0.04          5          0          0    0.00000   -1.00000    0.54405      0.550    0    2    0    0    0    0    0    1
  proximity        :          5       0.31       0.85        248          3          2    0.00000   -1.00000    0.54853      0.684    2    1    0    2    0    0    0    1
  zeroobjective    :          5       0.26       1.15        441          2          2    0.00000   -1.00000    0.46959      0.641    2    1    0    2    0    0    0    1
  dins             :          1       0.02       0.00          1          0          0    0.00000   -1.00000    0.56933      0.700    0    1    0    0    0    0    0    1
  trustregion      :          0       0.00       0.00          0          0          0    0.00000   -1.00000    1.00000      0.900    0    0    0    0    0    0    0    0
Expressions        :   #IntEval  IntEvalTi   #RevProp  RevPropTi    DomReds    Cutoffs  #Estimate  EstimTime  Branching  #Simplify SimplifyTi Simplified
  pow              :          0       0.00          0       0.00          0          0          0       0.00          0          0       0.00          0
  prod             :       6320       0.01          0       0.00          0          0          0       0.00          0       4690       0.01          0
  sum              :          8       0.01          2       0.00          0          0          0       0.00          0          3       0.03          2
  var              :       5485       0.00          0       0.00          0          0          0       0.00          0      11154       0.00          0
  varidx           :          0       0.00          0       0.00          0          0          0       0.00          0          0       0.00          0
LP                 :       Time      Calls Iterations  Iter/call   Iter/sec  Time-0-It Calls-0-It    ItLimit
  primal LP        :     131.26       9413          0       0.00       0.00     131.24       9413
  dual LP          :    2532.37     119165   11907298     109.34    4702.04       4.35      10267
  lex dual LP      :       0.00          0          0       0.00          -
  barrier LP       :       0.00          0          0       0.00          -       0.00          0
  resolve instable :       0.00          0          0       0.00          -
  diving/probing LP:     291.44      12273    2718987     221.54    9329.49
  strong branching :      29.91       2833     277609      97.99    9281.48          -          -        112
    (at root node) :          -         19       2914     153.37          -
  conflict analysis:       4.94       2893      28247       9.76    5718.02
NLP relaxation     :
  solve time       :       6.90 (10 calls)
  convexity        :  nonconvex (4 linear rows, 0 convex ineq., 0 nonconvex ineq., 1530 nonlinear eq. or two-sided ineq.)
NLP Solvers        :  #Problems  ProblemTi    #Solves  SolveTime      #Iter  Time/Iter      #Okay #TimeLimit #IterLimit #LObjLimit #Interrupt  #NumError #EvalError  #OutOfMem #LicenseEr #OtherTerm   #GlobOpt    #LocOpt  #Feasible #LocInfeas #GlobInfea #Unbounded   #Unknown
  ipopt            :         12       4.07         29     150.82       1976       0.08         29          0          0          0          0          0          0          0          0          0          0          0          0         19          0          0         10
B&B Tree           :
  number of runs   :          1
  nodes            :      93756 (54807 internal, 38949 leaves)
  feasible leaves  :         20
  infeas. leaves   :         20
  objective leaves :      38908
  nodes (total)    :      93756 (54807 internal, 38949 leaves)
  nodes left       :      15855
  max depth        :         53
  max depth (total):         53
  backtracks       :      19793 (21.1%)
  early backtracks :          0 (0.0%)
  nodes exc. ref.  :          0 (0.0%)
  delayed cutoffs  :          0
  repropagations   :         34 (88 domain reductions, 0 cutoffs)
  avg switch length:       4.48
  switching time   :     148.69
Estim. Tree Size   :     187520
Estimation Tree    : 109615 nodes (93760 visited, 54807 internal, 38953 leaves, 15855 open), weight: 0.0000 completed 0.1143
Estimations        :      estim      value      trend resolution     smooth
  wbe              : 9285455828          -          -          -          -
  tree-profile     :         -1          -          -          -          -
  gap              :     679516    0.78581    0.00005         64     656097
  tree-weight      :     187520    0.00001    0.00000         64     187208
  leaf-frequency   :     187520    0.41545   -0.00000         64     635289
  ssg              :    1694327    0.81957   -0.00006         64    1754609
  open-nodes       :     187520 15855.00000   16.15428         64     187208
Root Node          :
  First LP value   : -1.00000000000000e+00
  First LP Iters   :       1020 (12750.00 Iter/sec)
  First LP Time    :       0.08
  Final Dual Bound : -9.28045886075952e-01
  Final Root Iters :       1939
  Root LP Estimate : -5.08191176732057e-01
Solution           :
  Solutions found  :         61 (40 improvements)
  First Solution   : +1.00000000000000e+05   (in run 1, after 0 nodes, 0.04 seconds, depth 0, found by <trivial>)
  Gap First Sol.   :   infinite
  Gap Last Sol.    :      39.30 %
  Primal Bound     : -5.77848101265822e-01   (in run 1, after 12854 nodes, 476.04 seconds, depth 36, found by <crossover>)
  Dual Bound       : -7.35352622061484e-01
  Gap              :      27.26 %
Integrals          :      Total       Avg%
  primal-dual      :   92306.69      25.64
  primal-ref       :          -          - (not evaluated)
  dual-ref         :          -          - (not evaluated)
